Traveling Salesman Problem/TSP_generados/Aleatorio1620390847_5.tsp
NAME: Aleatorio1620390847_5.tsp
COMMENT: Randomly generated scenario
TYPE: TSP
DIMENSION: 5
EDGE_WEIGHT_TYPE: ATT
NODE_COORD_SECTION
1 43.75 29.87
2 6.36 36.06
3 33.68 8.86
4 4.28 22.29
5 18.89 23.63
