Traveling Salesman Problem/TSP_generados/Aleatorio1620390847_5.opt.tour
NAME: Aleatorio1620390847_5.opt.tour
COMMENT: Optimal solution for Aleatorio1620390847_5 (110.69713864433365)
TYPE: TOUR
DIMENSION: 5
TOUR_SECTION
1 2 4 5 3
-1
EOF
